NAME : mtspf.pid4727.gtsp.240592049.tour
COMMENT : Length = 240592049
COMMENT : Found by LKH [Keld Helsgaun] Sat Feb  8 23:55:54 2025
TYPE : TOUR
DIMENSION : 135
TOUR_SECTION
1
49
50
51
48
102
103
100
101
107
104
105
106
92
93
94
95
34
35
32
33
78
79
76
77
91
88
89
90
4
109
110
111
108
38
39
36
37
66
67
64
65
63
60
61
62
16
17
18
19
53
54
55
52
13
14
25
26
27
24
96
97
98
99
12
22
23
20
21
122
123
120
121
42
43
40
41
7
70
71
68
69
114
115
112
113
129
130
131
128
124
125
126
127
6
135
132
133
134
72
73
74
75
83
80
81
82
119
116
117
118
30
31
28
29
85
86
87
84
9
3
2
11
15
8
5
10
59
56
57
58
45
46
47
44
-1
EOF
